
Gurobi 10.0.2 (win64) logging started Fri Jun 21 03:41:15 2024

Set parameter LogFile to value "log/log_difficulty1_MNL_DESKTOP-S7OVCUR_9_40.txt"
Gurobi Optimizer version 10.0.2 build v10.0.2rc0 (win64)

CPU model: Intel(R) Core(TM) i7-10510U CPU @ 1.80GHz, instruction set [SSE2|AVX|AVX2]
Thread count: 4 physical cores, 8 logical processors, using up to 8 threads

Optimize a model with 2020 rows, 676 columns and 4612 nonzeros
Model fingerprint: 0xfd7821e1
Variable types: 364 continuous, 312 integer (312 binary)
Coefficient statistics:
  Matrix range     [2e-03, 5e+02]
  Objective range  [1e+02, 6e+02]
  Bounds range     [1e+00, 1e+00]
  RHS range        [1e+00, 1e+00]
Found heuristic solution: objective -0.0000000
Presolve removed 224 rows and 104 columns
Presolve time: 0.03s
Presolved: 1796 rows, 572 columns, 4227 nonzeros
Found heuristic solution: objective 2297.4659871
Variable types: 308 continuous, 264 integer (264 binary)

Root relaxation: objective 1.556403e+04, 429 iterations, 0.02 seconds (0.00 work units)

    Nodes    |    Current Node    |     Objective Bounds      |     Work
 Expl Unexpl |  Obj  Depth IntInf | Incumbent    BestBd   Gap | It/Node Time

     0     0 15564.0266    0  156 2297.46599 15564.0266   577%     -    0s
H    0     0                    9046.4300194 15564.0266  72.0%     -    0s
H    0     0                    9918.9892109 15564.0266  56.9%     -    0s
H    0     0                    12930.574241 15564.0266  20.4%     -    0s
     0     0 14694.6276    0  190 12930.5742 14694.6276  13.6%     -    0s
H    0     0                    13436.885959 14673.8520  9.21%     -    0s
     0     0 14673.8520    0  190 13436.8860 14673.8520  9.21%     -    0s
     0     0 14673.8520    0  188 13436.8860 14673.8520  9.21%     -    0s
H    0     0                    13464.032653 14673.8520  8.99%     -    0s
H    0     0                    13471.623756 14398.0562  6.88%     -    0s
     0     0 14398.0562    0  195 13471.6238 14398.0562  6.88%     -    0s
H    0     0                    13595.113129 14398.0562  5.91%     -    0s
H    0     0                    13632.879225 14398.0562  5.61%     -    0s
H    0     0                    14038.109054 14352.3914  2.24%     -    0s
H    0     0                    14115.120135 14352.3914  1.68%     -    0s
     0     0 14352.3914    0  191 14115.1201 14352.3914  1.68%     -    0s
H    0     0                    14215.516868 14347.6169  0.93%     -    0s
     0     0 14347.5957    0  200 14215.5169 14347.5957  0.93%     -    0s
     0     0 14346.5133    0  202 14215.5169 14346.5133  0.92%     -    0s
     0     0 14344.8556    0  202 14215.5169 14344.8556  0.91%     -    0s
     0     0 14344.7643    0  202 14215.5169 14344.7643  0.91%     -    0s
     0     0 14259.0127    0  188 14215.5169 14259.0127  0.31%     -    0s
     0     0 14230.5849    0  193 14215.5169 14230.5849  0.11%     -    0s
     0     0 14230.5849    0  192 14215.5169 14230.5849  0.11%     -    0s
     0     0 14215.5852    0  131 14215.5169 14215.5852  0.00%     -    0s

Cutting planes:
  Gomory: 13
  Implied bound: 19
  MIR: 59
  Flow cover: 93
  RLT: 64
  Relax-and-lift: 4
  BQP: 9

Explored 1 nodes (2093 simplex iterations) in 0.42 seconds (0.16 work units)
Thread count was 8 (of 8 available processors)

Solution count 10: 14215.5 14115.1 14038.1 ... 9918.99

Optimal solution found (tolerance 1.00e-04)
Best objective 1.421551686760e+04, best bound 1.421558521303e+04, gap 0.0005%
